NAME: random-81-4640
TYPE: TSP
COMMENT: size=81 seed=4640
DIMENSION: 164
EDGE_WEIGHT_TYPE: EUC_2D
NODE_COORD_SECTION
+0 480 690
-0 480 690
+1 816 375
-1 114 517
+2 23 368
-2 587 330
+3 695 360
-3 224 241
+4 522 915
-4 587 110
+5 681 818
-5 156 381
+6 278 852
-6 738 922
+7 530 709
-7 799 848
+8 281 540
-8 895 739
+9 615 37
-9 654 775
+10 418 407
-10 129 775
+11 519 761
-11 210 305
+12 705 952
-12 908 168
+13 479 235
-13 618 116
+14 81 685
-14 154 113
+15 621 260
-15 795 800
+16 674 996
-16 882 733
+17 61 846
-17 739 886
+18 5 40
-18 274 675
+19 518 936
-19 149 429
+20 473 253
-20 329 122
+21 764 913
-21 48 405
+22 501 786
-22 266 333
+23 884 973
-23 206 765
+24 176 792
-24 217 391
+25 669 443
-25 636 851
+26 369 276
-26 499 89
+27 247 696
-27 256 456
+28 69 949
-28 747 891
+29 453 771
-29 68 245
+30 366 202
-30 749 586
+31 572 949
-31 223 89
+32 7 649
-32 475 425
+33 521 113
-33 750 487
+34 54 132
-34 12 459
+35 114 689
-35 60 991
+36 626 888
-36 874 773
+37 57 738
-37 89 747
+38 952 38
-38 353 127
+39 171 813
-39 252 918
+40 317 970
-40 838 679
+41 563 759
-41 34 434
+42 28 519
-42 264 637
+43 51 776
-43 297 935
+44 422 738
-44 169 616
+45 613 474
-45 889 626
+46 199 694
-46 449 1
+47 200 682
-47 818 11
+48 505 529
-48 971 592
+49 22 95
-49 974 858
+50 348 874
-50 260 524
+51 877 326
-51 269 378
+52 247 193
-52 195 731
+53 473 658
-53 329 0
+54 515 414
-54 713 64
+55 583 75
-55 397 246
+56 310 564
-56 954 732
+57 365 949
-57 81 937
+58 779 445
-58 617 230
+59 480 957
-59 312 124
+60 970 320
-60 857 766
+61 302 573
-61 795 456
+62 885 67
-62 866 732
+63 684 102
-63 80 474
+64 518 261
-64 896 600
+65 177 285
-65 374 987
+66 592 833
-66 736 870
+67 408 612
-67 434 788
+68 224 737
-68 443 981
+69 932 421
-69 880 77
+70 340 36
-70 730 466
+71 156 299
-71 169 591
+72 84 820
-72 339 603
+73 72 249
-73 379 743
+74 74 665
-74 37 151
+75 110 389
-75 618 707
+76 133 735
-76 509 487
+77 431 752
-77 114 793
+78 690 624
-78 657 373
+79 519 790
-79 523 783
+80 29 479
-80 204 738
+81 131 236
-81 793 64
PRECEDENCE_SECTION
+0 -0
+1 -1
+2 -2
+3 -3
+4 -4
+5 -5
+6 -6
+7 -7
+8 -8
+9 -9
+10 -10
+11 -11
+12 -12
+13 -13
+14 -14
+15 -15
+16 -16
+17 -17
+18 -18
+19 -19
+20 -20
+21 -21
+22 -22
+23 -23
+24 -24
+25 -25
+26 -26
+27 -27
+28 -28
+29 -29
+30 -30
+31 -31
+32 -32
+33 -33
+34 -34
+35 -35
+36 -36
+37 -37
+38 -38
+39 -39
+40 -40
+41 -41
+42 -42
+43 -43
+44 -44
+45 -45
+46 -46
+47 -47
+48 -48
+49 -49
+50 -50
+51 -51
+52 -52
+53 -53
+54 -54
+55 -55
+56 -56
+57 -57
+58 -58
+59 -59
+60 -60
+61 -61
+62 -62
+63 -63
+64 -64
+65 -65
+66 -66
+67 -67
+68 -68
+69 -69
+70 -70
+71 -71
+72 -72
+73 -73
+74 -74
+75 -75
+76 -76
+77 -77
+78 -78
+79 -79
+80 -80
+81 -81
EOF
